(set-logic QF_S)
(declare-fun var0 () String)
(declare-fun var1 () Int)
(declare-fun var2 () String)
(declare-fun var3 () String)
(declare-fun var4 () Int)
(declare-fun var5 () String)
(declare-fun var6 () Int)
(declare-fun var7 () Int)
(assert (>= (str.len (str.substr var0 var1 147)) (str.indexof var2 var3 var4)))
(assert (str.contains (str.replace var5 var3 var5) (str.replace "" "Q" var0)))
(assert (< var6 var7))
(assert (<= 84 var4))
(check-sat)